db/data/3115145313504163001909914845151887302.z3.out
sat
-------------------
1085.771018164
